c description: Tseitin formula on Random 4-regular graph of 118 vertices, with odd charge
c generator: CNFgen (0.9.2)
c copyright: (C) 2012-2022 Massimo Lauria <massimo.lauria@uniroma1.it>
c url: https://massimolauria.net/cnfgen
c command line: cnfgen tseitin 118 4
c
p cnf 236 944
1 2 3 -4 0
1 2 -3 4 0
1 -2 3 4 0
1 -2 -3 -4 0
-1 2 3 4 0
-1 2 -3 -4 0
-1 -2 3 -4 0
-1 -2 -3 4 0
5 6 7 -8 0
5 6 -7 8 0
5 -6 7 8 0
5 -6 -7 -8 0
-5 6 7 8 0
-5 6 -7 -8 0
-5 -6 7 -8 0
-5 -6 -7 8 0
9 10 11 -12 0
9 10 -11 12 0
9 -10 11 12 0
9 -10 -11 -12 0
-9 10 11 12 0
-9 10 -11 -12 0
-9 -10 11 -12 0
-9 -10 -11 12 0
13 14 15 16 0
13 14 -15 -16 0
13 -14 15 -16 0
13 -14 -15 16 0
-13 14 15 -16 0
-13 14 -15 16 0
-13 -14 15 16 0
-13 -14 -15 -16 0
17 18 19 -20 0
17 18 -19 20 0
17 -18 19 20 0
17 -18 -19 -20 0
-17 18 19 20 0
-17 18 -19 -20 0
-17 -18 19 -20 0
-17 -18 -19 20 0
21 22 23 24 0
21 22 -23 -24 0
21 -22 23 -24 0
21 -22 -23 24 0
-21 22 23 -24 0
-21 22 -23 24 0
-21 -22 23 24 0
-21 -22 -23 -24 0
25 26 27 -28 0
25 26 -27 28 0
25 -26 27 28 0
25 -26 -27 -28 0
-25 26 27 28 0
-25 26 -27 -28 0
-25 -26 27 -28 0
-25 -26 -27 28 0
9 29 30 31 0
9 29 -30 -31 0
9 -29 30 -31 0
9 -29 -30 31 0
-9 29 30 -31 0
-9 29 -30 31 0
-9 -29 30 31 0
-9 -29 -30 -31 0
32 33 34 -35 0
32 33 -34 35 0
32 -33 34 35 0
32 -33 -34 -35 0
-32 33 34 35 0
-32 33 -34 -35 0
-32 -33 34 -35 0
-32 -33 -34 35 0
36 37 38 39 0
36 37 -38 -39 0
36 -37 38 -39 0
36 -37 -38 39 0
-36 37 38 -39 0
-36 37 -38 39 0
-36 -37 38 39 0
-36 -37 -38 -39 0
40 41 42 -43 0
40 41 -42 43 0
40 -41 42 43 0
40 -41 -42 -43 0
-40 41 42 43 0
-40 41 -42 -43 0
-40 -41 42 -43 0
-40 -41 -42 43 0
36 44 45 46 0
36 44 -45 -46 0
36 -44 45 -46 0
36 -44 -45 46 0
-36 44 45 -46 0
-36 44 -45 46 0
-36 -44 45 46 0
-36 -44 -45 -46 0
47 48 49 -50 0
47 48 -49 50 0
47 -48 49 50 0
47 -48 -49 -50 0
-47 48 49 50 0
-47 48 -49 -50 0
-47 -48 49 -50 0
-47 -48 -49 50 0
51 52 53 54 0
51 52 -53 -54 0
51 -52 53 -54 0
51 -52 -53 54 0
-51 52 53 -54 0
-51 52 -53 54 0
-51 -52 53 54 0
-51 -52 -53 -54 0
55 56 57 -58 0
55 56 -57 58 0
55 -56 57 58 0
55 -56 -57 -58 0
-55 56 57 58 0
-55 56 -57 -58 0
-55 -56 57 -58 0
-55 -56 -57 58 0
17 59 60 -61 0
17 59 -60 61 0
17 -59 60 61 0
17 -59 -60 -61 0
-17 59 60 61 0
-17 59 -60 -61 0
-17 -59 60 -61 0
-17 -59 -60 61 0
62 63 64 -65 0
62 63 -64 65 0
62 -63 64 65 0
62 -63 -64 -65 0
-62 63 64 65 0
-62 63 -64 -65 0
-62 -63 64 -65 0
-62 -63 -64 65 0
66 67 68 -69 0
66 67 -68 69 0
66 -67 68 69 0
66 -67 -68 -69 0
-66 67 68 69 0
-66 67 -68 -69 0
-66 -67 68 -69 0
-66 -67 -68 69 0
70 71 72 -73 0
70 71 -72 73 0
70 -71 72 73 0
70 -71 -72 -73 0
-70 71 72 73 0
-70 71 -72 -73 0
-70 -71 72 -73 0
-70 -71 -72 73 0
10 37 74 75 0
10 37 -74 -75 0
10 -37 74 -75 0
10 -37 -74 75 0
-10 37 74 -75 0
-10 37 -74 75 0
-10 -37 74 75 0
-10 -37 -74 -75 0
59 76 77 78 0
59 76 -77 -78 0
59 -76 77 -78 0
59 -76 -77 78 0
-59 76 77 -78 0
-59 76 -77 78 0
-59 -76 77 78 0
-59 -76 -77 -78 0
79 80 81 82 0
79 80 -81 -82 0
79 -80 81 -82 0
79 -80 -81 82 0
-79 80 81 -82 0
-79 80 -81 82 0
-79 -80 81 82 0
-79 -80 -81 -82 0
66 83 84 85 0
66 83 -84 -85 0
66 -83 84 -85 0
66 -83 -84 85 0
-66 83 84 -85 0
-66 83 -84 85 0
-66 -83 84 85 0
-66 -83 -84 -85 0
62 86 87 88 0
62 86 -87 -88 0
62 -86 87 -88 0
62 -86 -87 88 0
-62 86 87 -88 0
-62 86 -87 88 0
-62 -86 87 88 0
-62 -86 -87 -88 0
70 89 90 -91 0
70 89 -90 91 0
70 -89 90 91 0
70 -89 -90 -91 0
-70 89 90 91 0
-70 89 -90 -91 0
-70 -89 90 -91 0
-70 -89 -90 91 0
29 92 93 -94 0
29 92 -93 94 0
29 -92 93 94 0
29 -92 -93 -94 0
-29 92 93 94 0
-29 92 -93 -94 0
-29 -92 93 -94 0
-29 -92 -93 94 0
18 71 95 96 0
18 71 -95 -96 0
18 -71 95 -96 0
18 -71 -95 96 0
-18 71 95 -96 0
-18 71 -95 96 0
-18 -71 95 96 0
-18 -71 -95 -96 0
97 98 99 -100 0
97 98 -99 100 0
97 -98 99 100 0
97 -98 -99 -100 0
-97 98 99 100 0
-97 98 -99 -100 0
-97 -98 99 -100 0
-97 -98 -99 100 0
21 101 102 -103 0
21 101 -102 103 0
21 -101 102 103 0
21 -101 -102 -103 0
-21 101 102 103 0
-21 101 -102 -103 0
-21 -101 102 -103 0
-21 -101 -102 103 0
104 105 106 107 0
104 105 -106 -107 0
104 -105 106 -107 0
104 -105 -106 107 0
-104 105 106 -107 0
-104 105 -106 107 0
-104 -105 106 107 0
-104 -105 -106 -107 0
1 108 109 -110 0
1 108 -109 110 0
1 -108 109 110 0
1 -108 -109 -110 0
-1 108 109 110 0
-1 108 -109 -110 0
-1 -108 109 -110 0
-1 -108 -109 110 0
13 111 112 113 0
13 111 -112 -113 0
13 -111 112 -113 0
13 -111 -112 113 0
-13 111 112 -113 0
-13 111 -112 113 0
-13 -111 112 113 0
-13 -111 -112 -113 0
2 60 114 -115 0
2 60 -114 115 0
2 -60 114 115 0
2 -60 -114 -115 0
-2 60 114 115 0
-2 60 -114 -115 0
-2 -60 114 -115 0
-2 -60 -114 115 0
108 116 117 118 0
108 116 -117 -118 0
108 -116 117 -118 0
108 -116 -117 118 0
-108 116 117 -118 0
-108 116 -117 118 0
-108 -116 117 118 0
-108 -116 -117 -118 0
63 89 95 119 0
63 89 -95 -119 0
63 -89 95 -119 0
63 -89 -95 119 0
-63 89 95 -119 0
-63 89 -95 119 0
-63 -89 95 119 0
-63 -89 -95 -119 0
40 86 120 121 0
40 86 -120 -121 0
40 -86 120 -121 0
40 -86 -120 121 0
-40 86 120 -121 0
-40 86 -120 121 0
-40 -86 120 121 0
-40 -86 -120 -121 0
90 122 123 124 0
90 122 -123 -124 0
90 -122 123 -124 0
90 -122 -123 124 0
-90 122 123 -124 0
-90 122 -123 124 0
-90 -122 123 124 0
-90 -122 -123 -124 0
5 97 101 -125 0
5 97 -101 125 0
5 -97 101 125 0
5 -97 -101 -125 0
-5 97 101 125 0
-5 97 -101 -125 0
-5 -97 101 -125 0
-5 -97 -101 125 0
92 98 126 127 0
92 98 -126 -127 0
92 -98 126 -127 0
92 -98 -126 127 0
-92 98 126 -127 0
-92 98 -126 127 0
-92 -98 126 127 0
-92 -98 -126 -127 0
38 79 116 128 0
38 79 -116 -128 0
38 -79 116 -128 0
38 -79 -116 128 0
-38 79 116 -128 0
-38 79 -116 128 0
-38 -79 116 128 0
-38 -79 -116 -128 0
6 25 129 130 0
6 25 -129 -130 0
6 -25 129 -130 0
6 -25 -129 130 0
-6 25 129 -130 0
-6 25 -129 130 0
-6 -25 129 130 0
-6 -25 -129 -130 0
7 80 131 -132 0
7 80 -131 132 0
7 -80 131 132 0
7 -80 -131 -132 0
-7 80 131 132 0
-7 80 -131 -132 0
-7 -80 131 -132 0
-7 -80 -131 132 0
64 111 120 133 0
64 111 -120 -133 0
64 -111 120 -133 0
64 -111 -120 133 0
-64 111 120 -133 0
-64 111 -120 133 0
-64 -111 120 133 0
-64 -111 -120 -133 0
74 76 87 -134 0
74 76 -87 134 0
74 -76 87 134 0
74 -76 -87 -134 0
-74 76 87 134 0
-74 76 -87 -134 0
-74 -76 87 -134 0
-74 -76 -87 134 0
41 133 135 136 0
41 133 -135 -136 0
41 -133 135 -136 0
41 -133 -135 136 0
-41 133 135 -136 0
-41 133 -135 136 0
-41 -133 135 136 0
-41 -133 -135 -136 0
137 138 139 140 0
137 138 -139 -140 0
137 -138 139 -140 0
137 -138 -139 140 0
-137 138 139 -140 0
-137 138 -139 140 0
-137 -138 139 140 0
-137 -138 -139 -140 0
51 126 131 141 0
51 126 -131 -141 0
51 -126 131 -141 0
51 -126 -131 141 0
-51 126 131 -141 0
-51 126 -131 141 0
-51 -126 131 141 0
-51 -126 -131 -141 0
83 93 102 109 0
83 93 -102 -109 0
83 -93 102 -109 0
83 -93 -102 109 0
-83 93 102 -109 0
-83 93 -102 109 0
-83 -93 102 109 0
-83 -93 -102 -109 0
67 142 143 -144 0
67 142 -143 144 0
67 -142 143 144 0
67 -142 -143 -144 0
-67 142 143 144 0
-67 142 -143 -144 0
-67 -142 143 -144 0
-67 -142 -143 144 0
32 99 145 146 0
32 99 -145 -146 0
32 -99 145 -146 0
32 -99 -145 146 0
-32 99 145 -146 0
-32 99 -145 146 0
-32 -99 145 146 0
-32 -99 -145 -146 0
47 147 148 -149 0
47 147 -148 149 0
47 -147 148 149 0
47 -147 -148 -149 0
-47 147 148 149 0
-47 147 -148 -149 0
-47 -147 148 -149 0
-47 -147 -148 149 0
127 150 151 152 0
127 150 -151 -152 0
127 -150 151 -152 0
127 -150 -151 152 0
-127 150 151 -152 0
-127 150 -151 152 0
-127 -150 151 152 0
-127 -150 -151 -152 0
114 122 135 -153 0
114 122 -135 153 0
114 -122 135 153 0
114 -122 -135 -153 0
-114 122 135 153 0
-114 122 -135 -153 0
-114 -122 135 -153 0
-114 -122 -135 153 0
22 154 155 156 0
22 154 -155 -156 0
22 -154 155 -156 0
22 -154 -155 156 0
-22 154 155 -156 0
-22 154 -155 156 0
-22 -154 155 156 0
-22 -154 -155 -156 0
157 158 159 160 0
157 158 -159 -160 0
157 -158 159 -160 0
157 -158 -159 160 0
-157 158 159 -160 0
-157 158 -159 160 0
-157 -158 159 160 0
-157 -158 -159 -160 0
33 65 161 -162 0
33 65 -161 162 0
33 -65 161 162 0
33 -65 -161 -162 0
-33 65 161 162 0
-33 65 -161 -162 0
-33 -65 161 -162 0
-33 -65 -161 162 0
136 163 164 165 0
136 163 -164 -165 0
136 -163 164 -165 0
136 -163 -164 165 0
-136 163 164 -165 0
-136 163 -164 165 0
-136 -163 164 165 0
-136 -163 -164 -165 0
163 166 167 168 0
163 166 -167 -168 0
163 -166 167 -168 0
163 -166 -167 168 0
-163 166 167 -168 0
-163 166 -167 168 0
-163 -166 167 168 0
-163 -166 -167 -168 0
52 77 100 169 0
52 77 -100 -169 0
52 -77 100 -169 0
52 -77 -100 169 0
-52 77 100 -169 0
-52 77 -100 169 0
-52 -77 100 169 0
-52 -77 -100 -169 0
53 147 169 170 0
53 147 -169 -170 0
53 -147 169 -170 0
53 -147 -169 170 0
-53 147 169 -170 0
-53 147 -169 170 0
-53 -147 169 170 0
-53 -147 -169 -170 0
44 88 150 -171 0
44 88 -150 171 0
44 -88 150 171 0
44 -88 -150 -171 0
-44 88 150 171 0
-44 88 -150 -171 0
-44 -88 150 -171 0
-44 -88 -150 171 0
137 148 172 -173 0
137 148 -172 173 0
137 -148 172 173 0
137 -148 -172 -173 0
-137 148 172 173 0
-137 148 -172 -173 0
-137 -148 172 -173 0
-137 -148 -172 173 0
19 45 154 -174 0
19 45 -154 174 0
19 -45 154 174 0
19 -45 -154 -174 0
-19 45 154 174 0
-19 45 -154 -174 0
-19 -45 154 -174 0
-19 -45 -154 174 0
39 175 176 177 0
39 175 -176 -177 0
39 -175 176 -177 0
39 -175 -176 177 0
-39 175 176 -177 0
-39 175 -176 177 0
-39 -175 176 177 0
-39 -175 -176 -177 0
34 104 178 179 0
34 104 -178 -179 0
34 -104 178 -179 0
34 -104 -178 179 0
-34 104 178 -179 0
-34 104 -178 179 0
-34 -104 178 179 0
-34 -104 -178 -179 0
42 161 180 -181 0
42 161 -180 181 0
42 -161 180 181 0
42 -161 -180 -181 0
-42 161 180 181 0
-42 161 -180 -181 0
-42 -161 180 -181 0
-42 -161 -180 181 0
11 14 149 182 0
11 14 -149 -182 0
11 -14 149 -182 0
11 -14 -149 182 0
-11 14 149 -182 0
-11 14 -149 182 0
-11 -14 149 182 0
-11 -14 -149 -182 0
129 166 183 184 0
129 166 -183 -184 0
129 -166 183 -184 0
129 -166 -183 184 0
-129 166 183 -184 0
-129 166 -183 184 0
-129 -166 183 184 0
-129 -166 -183 -184 0
68 167 185 -186 0
68 167 -185 186 0
68 -167 185 186 0
68 -167 -185 -186 0
-68 167 185 186 0
-68 167 -185 -186 0
-68 -167 185 -186 0
-68 -167 -185 186 0
187 188 189 190 0
187 188 -189 -190 0
187 -188 189 -190 0
187 -188 -189 190 0
-187 188 189 -190 0
-187 188 -189 190 0
-187 -188 189 190 0
-187 -188 -189 -190 0
81 171 172 -191 0
81 171 -172 191 0
81 -171 172 191 0
81 -171 -172 -191 0
-81 171 172 191 0
-81 171 -172 -191 0
-81 -171 172 -191 0
-81 -171 -172 191 0
84 175 192 193 0
84 175 -192 -193 0
84 -175 192 -193 0
84 -175 -192 193 0
-84 175 192 -193 0
-84 175 -192 193 0
-84 -175 192 193 0
-84 -175 -192 -193 0
194 195 196 197 0
194 195 -196 -197 0
194 -195 196 -197 0
194 -195 -196 197 0
-194 195 196 -197 0
-194 195 -196 197 0
-194 -195 196 197 0
-194 -195 -196 -197 0
105 157 198 199 0
105 157 -198 -199 0
105 -157 198 -199 0
105 -157 -198 199 0
-105 157 198 -199 0
-105 157 -198 199 0
-105 -157 198 199 0
-105 -157 -198 -199 0
153 187 200 201 0
153 187 -200 -201 0
153 -187 200 -201 0
153 -187 -200 201 0
-153 187 200 -201 0
-153 187 -200 201 0
-153 -187 200 201 0
-153 -187 -200 -201 0
145 176 202 -203 0
145 176 -202 203 0
145 -176 202 203 0
145 -176 -202 -203 0
-145 176 202 203 0
-145 176 -202 -203 0
-145 -176 202 -203 0
-145 -176 -202 203 0
204 205 206 -207 0
204 205 -206 207 0
204 -205 206 207 0
204 -205 -206 -207 0
-204 205 206 207 0
-204 205 -206 -207 0
-204 -205 206 -207 0
-204 -205 -206 207 0
48 138 170 208 0
48 138 -170 -208 0
48 -138 170 -208 0
48 -138 -170 208 0
-48 138 170 -208 0
-48 138 -170 208 0
-48 -138 170 208 0
-48 -138 -170 -208 0
46 158 209 -210 0
46 158 -209 210 0
46 -158 209 210 0
46 -158 -209 -210 0
-46 158 209 210 0
-46 158 -209 -210 0
-46 -158 209 -210 0
-46 -158 -209 210 0
103 134 204 211 0
103 134 -204 -211 0
103 -134 204 -211 0
103 -134 -204 211 0
-103 134 204 -211 0
-103 134 -204 211 0
-103 -134 204 211 0
-103 -134 -204 -211 0
162 202 212 213 0
162 202 -212 -213 0
162 -202 212 -213 0
162 -202 -212 213 0
-162 202 212 -213 0
-162 202 -212 213 0
-162 -202 212 213 0
-162 -202 -212 -213 0
78 117 214 -215 0
78 117 -214 215 0
78 -117 214 215 0
78 -117 -214 -215 0
-78 117 214 215 0
-78 117 -214 -215 0
-78 -117 214 -215 0
-78 -117 -214 215 0
26 191 216 217 0
26 191 -216 -217 0
26 -191 216 -217 0
26 -191 -216 217 0
-26 191 216 -217 0
-26 191 -216 217 0
-26 -191 216 217 0
-26 -191 -216 -217 0
35 151 192 -218 0
35 151 -192 218 0
35 -151 192 218 0
35 -151 -192 -218 0
-35 151 192 218 0
-35 151 -192 -218 0
-35 -151 192 -218 0
-35 -151 -192 218 0
27 106 209 219 0
27 106 -209 -219 0
27 -106 209 -219 0
27 -106 -209 219 0
-27 106 209 -219 0
-27 106 -209 219 0
-27 -106 209 219 0
-27 -106 -209 -219 0
112 130 183 220 0
112 130 -183 -220 0
112 -130 183 -220 0
112 -130 -183 220 0
-112 130 183 -220 0
-112 130 -183 220 0
-112 -130 183 220 0
-112 -130 -183 -220 0
142 185 221 -222 0
142 185 -221 222 0
142 -185 221 222 0
142 -185 -221 -222 0
-142 185 221 222 0
-142 185 -221 -222 0
-142 -185 221 -222 0
-142 -185 -221 222 0
107 146 220 -223 0
107 146 -220 223 0
107 -146 220 223 0
107 -146 -220 -223 0
-107 146 220 223 0
-107 146 -220 -223 0
-107 -146 220 -223 0
-107 -146 -220 223 0
91 205 212 221 0
91 205 -212 -221 0
91 -205 212 -221 0
91 -205 -212 221 0
-91 205 212 -221 0
-91 205 -212 221 0
-91 -205 212 221 0
-91 -205 -212 -221 0
30 49 113 168 0
30 49 -113 -168 0
30 -49 113 -168 0
30 -49 -113 168 0
-30 49 113 -168 0
-30 49 -113 168 0
-30 -49 113 168 0
-30 -49 -113 -168 0
55 128 194 224 0
55 128 -194 -224 0
55 -128 194 -224 0
55 -128 -194 224 0
-55 128 194 -224 0
-55 128 -194 224 0
-55 -128 194 224 0
-55 -128 -194 -224 0
12 214 225 -226 0
12 214 -225 226 0
12 -214 225 226 0
12 -214 -225 -226 0
-12 214 225 226 0
-12 214 -225 -226 0
-12 -214 225 -226 0
-12 -214 -225 226 0
118 178 227 228 0
118 178 -227 -228 0
118 -178 227 -228 0
118 -178 -227 228 0
-118 178 227 -228 0
-118 178 -227 228 0
-118 -178 227 228 0
-118 -178 -227 -228 0
54 180 229 230 0
54 180 -229 -230 0
54 -180 229 -230 0
54 -180 -229 230 0
-54 180 229 -230 0
-54 180 -229 230 0
-54 -180 229 230 0
-54 -180 -229 -230 0
3 8 200 231 0
3 8 -200 -231 0
3 -8 200 -231 0
3 -8 -200 231 0
-3 8 200 -231 0
-3 8 -200 231 0
-3 -8 200 231 0
-3 -8 -200 -231 0
31 82 159 219 0
31 82 -159 -219 0
31 -82 159 -219 0
31 -82 -159 219 0
-31 82 159 -219 0
-31 82 -159 219 0
-31 -82 159 219 0
-31 -82 -159 -219 0
56 195 203 -224 0
56 195 -203 224 0
56 -195 203 224 0
56 -195 -203 -224 0
-56 195 203 224 0
-56 195 -203 -224 0
-56 -195 203 -224 0
-56 -195 -203 224 0
115 208 223 -231 0
115 208 -223 231 0
115 -208 223 231 0
115 -208 -223 -231 0
-115 208 223 231 0
-115 208 -223 -231 0
-115 -208 223 -231 0
-115 -208 -223 231 0
94 164 229 -232 0
94 164 -229 232 0
94 -164 229 232 0
94 -164 -229 -232 0
-94 164 229 232 0
-94 164 -229 -232 0
-94 -164 229 -232 0
-94 -164 -229 232 0
57 123 139 201 0
57 123 -139 -201 0
57 -123 139 -201 0
57 -123 -139 201 0
-57 123 139 -201 0
-57 123 -139 201 0
-57 -123 139 201 0
-57 -123 -139 -201 0
72 121 143 -188 0
72 121 -143 188 0
72 -121 143 188 0
72 -121 -143 -188 0
-72 121 143 188 0
-72 121 -143 -188 0
-72 -121 143 -188 0
-72 -121 -143 188 0
20 58 181 196 0
20 58 -181 -196 0
20 -58 181 -196 0
20 -58 -181 196 0
-20 58 181 -196 0
-20 58 -181 196 0
-20 -58 181 196 0
-20 -58 -181 -196 0
4 15 141 225 0
4 15 -141 -225 0
4 -15 141 -225 0
4 -15 -141 225 0
-4 15 141 -225 0
-4 15 -141 225 0
-4 -15 141 225 0
-4 -15 -141 -225 0
23 50 232 -233 0
23 50 -232 233 0
23 -50 232 233 0
23 -50 -232 -233 0
-23 50 232 233 0
-23 50 -232 -233 0
-23 -50 232 -233 0
-23 -50 -232 233 0
110 124 189 211 0
110 124 -189 -211 0
110 -124 189 -211 0
110 -124 -189 211 0
-110 124 189 -211 0
-110 124 -189 211 0
-110 -124 189 211 0
-110 -124 -189 -211 0
28 43 174 227 0
28 43 -174 -227 0
28 -43 174 -227 0
28 -43 -174 227 0
-28 43 174 -227 0
-28 43 -174 227 0
-28 -43 174 227 0
-28 -43 -174 -227 0
155 186 193 -234 0
155 186 -193 234 0
155 -186 193 234 0
155 -186 -193 -234 0
-155 186 193 234 0
-155 186 -193 -234 0
-155 -186 193 -234 0
-155 -186 -193 234 0
24 216 230 -234 0
24 216 -230 234 0
24 -216 230 234 0
24 -216 -230 -234 0
-24 216 230 234 0
-24 216 -230 -234 0
-24 -216 230 -234 0
-24 -216 -230 234 0
96 198 210 213 0
96 198 -210 -213 0
96 -198 210 -213 0
96 -198 -210 213 0
-96 198 210 -213 0
-96 198 -210 213 0
-96 -198 210 213 0
-96 -198 -210 -213 0
85 156 190 -217 0
85 156 -190 217 0
85 -156 190 217 0
85 -156 -190 -217 0
-85 156 190 217 0
-85 156 -190 -217 0
-85 -156 190 -217 0
-85 -156 -190 217 0
132 140 179 233 0
132 140 -179 -233 0
132 -140 179 -233 0
132 -140 -179 233 0
-132 140 179 -233 0
-132 140 -179 233 0
-132 -140 179 233 0
-132 -140 -179 -233 0
119 144 160 197 0
119 144 -160 -197 0
119 -144 160 -197 0
119 -144 -160 197 0
-119 144 160 -197 0
-119 144 -160 197 0
-119 -144 160 197 0
-119 -144 -160 -197 0
69 152 173 182 0
69 152 -173 -182 0
69 -152 173 -182 0
69 -152 -173 182 0
-69 152 173 -182 0
-69 152 -173 182 0
-69 -152 173 182 0
-69 -152 -173 -182 0
165 226 228 -235 0
165 226 -228 235 0
165 -226 228 235 0
165 -226 -228 -235 0
-165 226 228 235 0
-165 226 -228 -235 0
-165 -226 228 -235 0
-165 -226 -228 235 0
75 215 222 236 0
75 215 -222 -236 0
75 -215 222 -236 0
75 -215 -222 236 0
-75 215 222 -236 0
-75 215 -222 236 0
-75 -215 222 236 0
-75 -215 -222 -236 0
16 177 184 236 0
16 177 -184 -236 0
16 -177 184 -236 0
16 -177 -184 236 0
-16 177 184 -236 0
-16 177 -184 236 0
-16 -177 184 236 0
-16 -177 -184 -236 0
61 199 206 218 0
61 199 -206 -218 0
61 -199 206 -218 0
61 -199 -206 218 0
-61 199 206 -218 0
-61 199 -206 218 0
-61 -199 206 218 0
-61 -199 -206 -218 0
73 125 207 235 0
73 125 -207 -235 0
73 -125 207 -235 0
73 -125 -207 235 0
-73 125 207 -235 0
-73 125 -207 235 0
-73 -125 207 235 0
-73 -125 -207 -235 0
